50
2 519 322 660 895 1026 27 668 634 1313 1560 1811 268 1069 396 476 882 1664 5 486 1530 1886 545 1145 1271 1569 158 411 639 792 1335 1695 1722 455 949 1303 1425 14 1652 290 775 938 1371 1521 1720 807 477 823 819 1112
